
Gurobi 6.5.2 (linux64) logging started Wed Sep 14 14:58:48 2016

Optimize a model with 41 rows, 77 columns and 175 nonzeros
Coefficient statistics:
  Matrix range    [1e+00, 2e+00]
  Objective range [8e+00, 1e+02]
  Bounds range    [1e+00, 1e+00]
  RHS range       [1e+00, 1e+00]
Found heuristic solution: objective 1164
Presolve removed 14 rows and 7 columns
Presolve time: 0.00s
Presolved: 27 rows, 70 columns, 146 nonzeros
Variable types: 0 continuous, 70 integer (70 binary)

Root relaxation: objective 6.520000e+02, 24 iterations, 0.00 seconds

    Nodes    |    Current Node    |     Objective Bounds      |     Work
 Expl Unexpl |  Obj  Depth IntInf | Incumbent    BestBd   Gap | It/Node Time

     0     0  652.00000    0    4 1164.00000  652.00000  44.0%     -    0s
H    0     0                     705.0000000  652.00000  7.52%     -    0s
     0     0  703.50000    0    6  705.00000  703.50000  0.21%     -    0s

Cutting planes:
  Gomory: 4
  Cover: 5
  Lazy constraints: 3

Explored 0 nodes (34 simplex iterations) in 0.00 seconds
Thread count was 8 (of 8 available processors)

Optimal solution found (tolerance 1.00e-04)
Best objective 7.050000000000e+02, best bound 7.050000000000e+02, gap 0.0%
